0 82 83 131 147 75 79 56 75 153 222 145 253 368
83 0 46 108 99 155 83 167 84 84 87 72 152 179
138 46 0 112 204 157 180 139 156 99 102 62 199 270
131 108 112 0 112 159 153 187 142 77 167 125 131 233
147 99 204 112 0 87 145 183 136 125 168 145 173 211
75 155 157 159 87 0 20 131 153 201 292 220 290 242
79 83 180 153 145 20 0 96 87 144 168 149 203 239 
56 167 139 187 183 131 96 0 77 210 189 336 309 450
75 84 156 142 136 153 87 77 0 169 160 151 236 263
153 84 99 77 125 201 144 150 169 0 62 59 96 92
222 87 120 167 168 292 168 189 160 62 0 23 108 179
145 72 62 125 145 220 149 336 151 99 23 0 136 115
253 152 199 131 173 290 203 309 236 96 108 136 0 39
368 179 270 233 211 401 239 450 263 92 179 115 39 0